(set-info :status unknown)
(declare-fun %B () (_ BitVec 54))
(declare-fun %A () (_ BitVec 54))
(declare-fun %X () (_ BitVec 54))
(declare-fun u_%Y () (_ BitVec 8))
(declare-fun |ana_isPowerOf2(%A)| () (_ BitVec 1))
(assert
 (let ((?x13233 (bvshl %A %B)))
 (let ((?x15554 (bvsrem %X ?x13233)))
 (let (($x132 (= |ana_isPowerOf2(%A)| (_ bv1 1))))
 (let (($x13303 (bvult %B (_ bv54 54))))
 (let (($x355 (=> $x132 (and (and (distinct %A (_ bv0 54)) true) (= (bvand %A (bvsub %A (_ bv1 54))) (_ bv0 54))))))
 (let (($x5248 (or (and (distinct %X (_ bv9007199254740992 54)) true) (and (distinct ?x13233 (_ bv18014398509481983 54)) true))))
 (let (($x2113 (and (distinct ?x13233 (_ bv0 54)) true)))
 (and $x13303 $x2113 $x5248 $x355 $x13303 $x132 (= u_%Y (_ bv1 8)) (and (distinct ?x15554 ?x15554) true))))))))))
(check-sat)
